# Solution for model r5_t9_m8_8 Batch Number: 1
# Finished Task: 7 / 9
# Makespan: 504.0, Total Distance: 247.0, Total Time: 0.3809
# R O S F Batch
0 0 9 0.0 0.0 -1
1 1 10 0.0 0.0 -1
2 2 6 0.0 0.0 -1
3 3 5 0.0 0.0 -1
4 4 -1 0.0 0.0 -1
5 3 7 171.0 191.0 0
6 2 -1 296.0 328.0 0
7 3 8 265.0 296.0 0
8 3 11 430.0 457.0 0
9 0 -1 174.0 205.0 0
10 1 -1 366.0 392.0 0
11 3 -1 479.0 504.0 0
12 -1 -1 -1.0 -1.0 0
13 -1 -1 -1.0 -1.0 0
